Name: Toy
Courses: 4
Rooms: 3
Days: 5
Periods_per_day: 4
Curricula: 2
Constraints: 8

COURSES:
SceCosC Ocra 3 3 30
ArcTec Scarlatti 3 2 42
TecCos Rosa 5 4 40
GeoTec Scarlatti 5 4 18

ROOMS:
rA 32
rB 50
rC 40

CURRICULA:
Cur1 3 SceCosC ArcTec TecCos
Cur2 2 TecCos GeoTec

UNAVAILABILITY_CONSTRAINTS:
TecCos 2 0
TecCos 2 1
TecCos 3 2
TecCos 3 3
ArcTec 0 0
ArcTec 4 1
ArcTec 4 2
ArcTec 4 3

END.